g3 2 1 0	# problem tmp
 35 34 1 0 28	# vars, constraints, objectives, ranges, eqns
 9 0 6 0	# nonlinear constrs, objs; ccons: lin, nonlin
 0 0	# network constraints: nonlinear, linear
 17 0 0	# nonlinear vars in constraints, objectives, both
 0 0 0 1	# linear network variables; functions; arith, flags
 0 0 0 0 0	# discrete variables: binary, integer, nonlinear (b,c,o)
 92 3	# nonzeros in Jacobian, gradients
 0 0	# max name lengths: constraints, variables
 0 0 0 0 0	# common exprs: b,c,o,c1,o1
C0
o1
o2
v0
o0
o2
n0.6
v9
o2
n0.8
v10
o2
v0
o0
v11
o16
v12
C1
o1
o2
v1
v10
o2
v1
o0
v13
o16
v14
C2
o1
o2
v2
o0
o2
n-0.6
v9
o2
n0.8
v10
o2
v2
o0
v15
o16
v16
C3
o2
v3
v11
C4
o2
v4
v12
C5
o2
v5
v13
C6
o2
v6
v14
C7
o2
v7
v15
C8
o2
v8
v16
C9
n0
C10
n0
C11
n0
C12
n0
C13
n0
C14
n0
C15
n0
C16
n0
C17
n0
C18
n0
C19
n0
C20
n0
C21
n0
C22
n0
C23
n0
C24
n0
C25
n0
C26
n0
C27
n0
C28
n0
C29
n0
C30
n0
C31
n0
C32
n0
C33
n0
O0 0
n0
x24
0 1
1 1
2 1
3 1
4 1
5 1
6 1
7 1
8 1
17 1
18 1
19 1
20 1
21 1
22 1
26 1
27 1
28 1
29 1
30 1
31 1
32 1
33 1
34 1
r
4 0
4 0
4 0
4 0
4 0
4 0
4 0
4 0
4 0
4 0
4 0
4 0
4 0
4 0
4 0
4 0
4 0
4 0
4 0
4 0
4 0
4 0
4 0
4 0
4 0
4 0
4 400
4 600
5 1 30
5 1 31
5 1 32
5 1 33
5 1 34
5 1 35
b
3
3
3
3
3
3
3
3
3
0 -4 4
0 -4 4
3
3
3
3
3
3
3
3
3
3
3
3
3
3
3
2 0
2 0
2 0
2 0
2 0
2 0
2 0
2 0
2 0
k34
2
4
6
8
10
12
14
16
18
20
23
26
29
32
35
38
41
43
45
47
49
51
53
58
62
67
74
80
86
87
88
89
90
91
J0 6
0 0
9 0
10 0
11 0
12 0
23 -1
J1 5
1 0
10 0
13 0
14 0
24 -1
J2 6
2 0
9 0
10 0
15 0
16 0
25 -1
J3 5
3 0
11 0
17 1
23 -1
29 -1
J4 5
4 0
12 0
18 1
23 1
30 -1
J5 5
5 0
13 0
19 1
24 -1
31 -1
J6 5
6 0
14 0
20 1
24 1
32 -1
J7 5
7 0
15 0
21 1
25 -1
33 -1
J8 5
8 0
16 0
22 1
25 1
34 -1
J9 2
26 -1
27 1
J10 2
26 -1
28 1
J11 2
0 1
26 -40
J12 2
1 1
27 -50
J13 2
2 1
28 -40
J14 2
17 1
26 -50
J15 2
18 1
26 -50
J16 2
19 1
27 -50
J17 2
20 1
27 -50
J18 2
21 1
28 -50
J19 2
22 1
28 -50
J20 2
3 1
26 -5
J21 2
4 1
26 -5
J22 2
5 1
27 -6.25
J23 2
6 1
27 -6.25
J24 2
7 1
28 -5
J25 2
8 1
28 -5
J26 2
23 0.6
25 -0.6
J27 3
23 0.8
24 1
25 0.8
J28 1
11 1
J29 1
12 1
J30 1
13 1
J31 1
14 1
J32 1
15 1
J33 1
16 1
G0 3
26 500
27 400
28 500
